82
29
0 30 31 32 33 34 36 37 39 40 42 44 45 46 47 48 52 53 55 62 64 65 66 68 69 70 71 72 73 74 77 81
1 29 32 33 35 37 39 40 42 44 47 52 55 57 58 62 65 67 68 69 70 71 77 78 79 80 81
2 29 30 32 33 34 39 42 44 45 46 47 52 54 55 57 59 62 63 65 68 69 70 71 72 76 77 81
3 29 30 31 40 42 45 46 47 51 52 53 55 56 57 60 62 65 67 68 69 70 71 73 75 77 78 79 80 81
4 29 30 31 32 40 42 46 47 48 51 52 54 55 57 62 68 69 70 71 72 77 78 81
5 29 30 31 32 34 35 37 39 40 41 42 44 46 47 48 54 55 57 62 64 66 67 68 69 70 71 75 76 77 78 80 81
6 29 31 32 33 34 38 42 43 47 52 53 55 56 57 59 65 67 68 69 71 72 77 78 81
7 29 32 33 34 36 37 39 40 42 49 52 55 59 60 61 62 65 67 68 71 72 75 76 77 78 80 81
8 30 32 33 34 36 37 38 40 42 44 46 47 51 53 57 59 62 63 64 65 66 68 70 71 72 75 77 79 81
9 30 33 39 42 44 48 52 55 59 62 67 69 70 72 77 78 79
10 29 32 33 36 37 38 40 41 44 47 51 52 54 57 58 59 62 65 66 68 69 75 76 77 78 79 81
11 29 33 34 37 39 40 42 43 44 45 47 48 49 55 57 67 68 69 70 72 73 77
12 29 32 34 36 39 40 41 42 44 46 47 54 55 59 60 61 62 67 68 69 71 72 73 79
13 29 30 33 34 35 36 37 40 42 48 50 51 54 55 57 64 66 67 68 69 71 72 75 77
14 29 30 33 36 38 40 42 44 50 52 54 60 62 67 72 73 75 76 79 81
15 29 31 35 36 37 39 41 46 48 51 52 62 64 68 69 70 75 77 79 80 81
16 30 36 39 40 42 45 47 49 50 52 59 62 69 73 75 76 77 78
17 29 31 32 34 36 38 39 40 47 48 49 51 53 59 60 62 66 75 76 77
18 31 33 34 38 40 42 46 49 52 53 54 58 65 66 69 71 76 78 79 81
19 31 32 36 40 46 47 51 53 56 60 64 65 68 72 77 81
20 30 31 32 38 47 48 52 53 58 60 62 69 71
21 30 37 45 46 47 48 51 55 57 68 70 71 72
22 29 33 35 37 47 57 58 59 60 61 67 69 75 77 79
23 52 61 65
24 29 30 32 41 47 66 72
25 29 32 33 51 53 70 71
26 50 53 62 65 67 77 79 81
27 57 75
28 61 74
